\ Model knapsack_60_10_3
\ LP format - for model browsing. Use MPS format to capture full model detail.
\ Signature: 0x8c83cdce78c9d83d
Minimize
  - 942 y[0] - 915 y[1] - 583 y[2] - 527 y[3] - 209 y[4] - 469 y[5]
   - 934 y[6] - 1085 y[7] - 475 y[8] - 998 y[9] - 284 y[10] - 490 y[11]
   - 420 y[12] - 398 y[13] - 342 y[14] - 828 y[15] - 884 y[16] - 483 y[17]
   - 845 y[18] - 379 y[19] - 586 y[20] - 1084 y[21] - 462 y[22] - 788 y[23]
   - 539 y[24] - 256 y[25] - 719 y[26] - 795 y[27] - 675 y[28] - 532 y[29]
   - 151 y[30] - 509 y[31] - 108 y[32] - 371 y[33] - 579 y[34] - 715 y[35]
   - 528 y[36] - 439 y[37] - 489 y[38] - 970 y[39] - 548 y[40] - 214 y[41]
   - 1010 y[42] - 392 y[43] - 267 y[44] - 681 y[45] - 673 y[46] - 241 y[47]
   - 515 y[48] - 742 y[49] - 555 y[50] - 159 y[51] - 753 y[52] - 525 y[53]
   - 770 y[54] - 528 y[55] - 468 y[56] - 439 y[57] - 618 y[58] - 753 y[59]
Subject To
 primal_upper: 842 y[0] + 815 y[1] + 483 y[2] + 427 y[3] + 109 y[4]
   + 369 y[5] + 834 y[6] + 985 y[7] + 375 y[8] + 898 y[9] + 184 y[10]
   + 390 y[11] + 320 y[12] + 298 y[13] + 242 y[14] + 728 y[15] + 784 y[16]
   + 383 y[17] + 745 y[18] + 279 y[19] + 486 y[20] + 984 y[21] + 362 y[22]
   + 688 y[23] + 439 y[24] + 156 y[25] + 619 y[26] + 695 y[27] + 575 y[28]
   + 432 y[29] + 51 y[30] + 409 y[31] + 8 y[32] + 271 y[33] + 479 y[34]
   + 615 y[35] + 428 y[36] + 339 y[37] + 389 y[38] + 870 y[39] + 448 y[40]
   + 114 y[41] + 910 y[42] + 292 y[43] + 167 y[44] + 581 y[45] + 573 y[46]
   + 141 y[47] + 415 y[48] + 642 y[49] + 455 y[50] + 59 y[51] + 653 y[52]
   + 425 y[53] + 670 y[54] + 428 y[55] + 368 y[56] + 339 y[57] + 518 y[58]
   + 653 y[59] + 84 z[0] + 82 z[1] + 48 z[2] + 43 z[3] + 11 z[4] + 37 z[5]
   + 83 z[6] + 98 z[7] + 38 z[8] + 90 z[9] + 18 z[10] + 39 z[11] + 32 z[12]
   + 30 z[13] + 24 z[14] + 73 z[15] + 78 z[16] + 38 z[17] + 74 z[18]
   + 28 z[19] + 49 z[20] + 98 z[21] + 36 z[22] + 69 z[23] + 44 z[24]
   + 16 z[25] + 62 z[26] + 70 z[27] + 58 z[28] + 43 z[29] + 5 z[30]
   + 41 z[31] + z[32] + 27 z[33] + 48 z[34] + 62 z[35] + 43 z[36]
   + 34 z[37] + 39 z[38] + 87 z[39] + 45 z[40] + 11 z[41] + 91 z[42]
   + 29 z[43] + 17 z[44] + 58 z[45] + 57 z[46] + 14 z[47] + 42 z[48]
   + 64 z[49] + 46 z[50] + 6 z[51] + 65 z[52] + 42 z[53] + 67 z[54]
   + 43 z[55] + 37 z[56] + 34 z[57] + 52 z[58] + 65 z[59] <= 7159
 primal_lower0: - 10 y[0] - 41 y[1] - 107 y[2] - 13 y[3] - 67 y[4] - 7 y[5]
   - 37 y[6] - 56 y[8] - 110 y[9] - 72 y[10] - 31 y[11] - 42 y[12]
   - 8 y[13] - 67 y[14] - 65 y[15] - 102 y[16] - 86 y[17] - 79 y[18]
   - 46 y[19] - 67 y[20] - 21 y[21] - 20 y[22] - 13 y[23] - 40 y[24]
   - 112 y[25] - 68 y[26] - 30 y[27] - 41 y[28] - 73 y[29] - 99 y[30]
   - 60 y[31] - 72 y[32] - 73 y[33] - 99 y[34] - 97 y[35] - 83 y[36]
   - 64 y[37] - 67 y[38] - 21 y[39] - 84 y[40] - 113 y[41] - 67 y[42]
   - 23 y[43] - 11 y[44] - 71 y[45] - 103 y[46] - 19 y[47] - 82 y[48]
   - 11 y[49] - 118 y[50] - 12 y[51] - 53 y[52] - 78 y[53] - 96 y[54]
   - 59 y[55] - 35 y[56] - 31 y[57] - 12 y[58] - 94 y[59] + 385 u[0]
   + 963 u[1] + 949 u[2] + 764 u[3] + 819 u[4] + 277 u[5] + 724 u[6]
   + 193 u[7] + 173 u[8] + 63 u[9] + 475 u[10] + 910 u[11] + 270 u[12]
   + 839 u[13] + 605 u[14] + 889 u[15] + 774 u[16] + 76 u[17] + 715 u[18]
   + 280 u[19] + 285 u[20] + 908 u[21] + 100 u[22] + 272 u[23] + 509 u[24]
   + 168 u[25] + 197 u[26] + 815 u[27] + 158 u[28] + 868 u[29] + 742 u[30]
   + 489 u[31] + 734 u[32] + 99 u[33] + 313 u[34] + 231 u[35] + 562 u[36]
   + 880 u[37] + 311 u[38] + 439 u[39] + 590 u[40] + 103 u[41] + 993 u[42]
   + 148 u[43] + 405 u[44] + 865 u[45] + 944 u[46] + 693 u[47] + 566 u[48]
   + 86 u[49] + 49 u[50] + 644 u[51] + 235 u[52] + 741 u[53] + 289 u[54]
   + 941 u[55] + 487 u[56] + 415 u[57] + 168 u[58] + 494 u[59] <= 7519
 primal_lower1: - 62 y[0] - 94 y[1] - 36 y[2] - 73 y[3] - 118 y[4]
   - 88 y[5] - 63 y[6] - 50 y[7] - 2 y[8] - 96 y[9] - 11 y[10] - 11 y[11]
   - 27 y[12] - 44 y[13] - 12 y[14] - 73 y[15] - 40 y[16] - 116 y[17]
   - 53 y[18] - 51 y[19] - 37 y[20] - 54 y[21] - 64 y[22] - 55 y[23]
   - 112 y[24] - 56 y[25] - 34 y[26] - 72 y[27] - 61 y[28] - 37 y[29]
   - 64 y[30] - 54 y[31] - 27 y[32] - 110 y[33] - 56 y[34] - 78 y[35]
   - 56 y[36] - 21 y[37] - 7 y[38] - 88 y[39] - 70 y[40] - 71 y[41]
   - 71 y[42] - 89 y[43] - 24 y[44] - 13 y[45] - 105 y[46] - 111 y[47]
   - 61 y[48] - 12 y[49] - 46 y[50] - 41 y[51] - 91 y[52] - 30 y[53]
   - 29 y[54] - 110 y[55] - 44 y[56] - 20 y[57] - 27 y[58] - 33 y[59]
   + 758 u[0] + 139 u[1] + 727 u[2] + 431 u[3] + 73 u[4] + 421 u[5]
   + 22 u[6] + 869 u[7] + 131 u[8] + 846 u[9] + 476 u[10] + 674 u[11]
   + 212 u[12] + 38 u[13] + 902 u[14] + 548 u[15] + 276 u[16] + 955 u[17]
   + 77 u[18] + 59 u[19] + 442 u[20] + 204 u[21] + 6 u[22] + 908 u[23]
   + 707 u[24] + 40 u[25] + 335 u[26] + 683 u[27] + 507 u[28] + 964 u[29]
   + 815 u[30] + 341 u[31] + 996 u[32] + 171 u[33] + 67 u[34] + 331 u[35]
   + 440 u[36] + 295 u[37] + 529 u[38] + 506 u[39] + 652 u[40] + 630 u[41]
   + 802 u[42] + 680 u[43] + 859 u[44] + 633 u[45] + 297 u[46] + 449 u[47]
   + 291 u[48] + 158 u[49] + 75 u[50] + 663 u[51] + 841 u[52] + 605 u[53]
   + 34 u[54] + 280 u[55] + 172 u[56] + 719 u[57] + 890 u[58] + 737 u[59]
   <= 7097
 primal_lower2: - 181 y[0] - 102 y[1] - 219 y[2] - 156 y[3] - 137 y[4]
   - 70 y[5] - 50 y[6] - 81 y[7] - 46 y[8] - 47 y[9] - 226 y[10]
   - 151 y[11] - 196 y[12] - 99 y[13] - 126 y[14] - 241 y[15] - 149 y[16]
   - 180 y[17] - 83 y[18] - 200 y[19] - 173 y[20] - 145 y[21] - 29 y[22]
   - 49 y[23] - 137 y[24] - 73 y[25] - 124 y[26] - 190 y[27] - 60 y[28]
   - 59 y[29] - 168 y[30] - 115 y[31] - 217 y[32] - 167 y[33] - 128 y[34]
   - 90 y[35] - 192 y[36] - 6 y[37] - 164 y[38] - 239 y[39] - 205 y[40]
   - 246 y[41] - 198 y[42] - 127 y[43] - 37 y[44] - 122 y[45] - 105 y[46]
   - 206 y[47] - 200 y[48] - 154 y[49] - 187 y[50] - 27 y[51] - 120 y[52]
   - 57 y[53] - 176 y[54] - 70 y[55] - 78 y[56] - 184 y[57] - 109 y[58]
   - 107 y[59] + 548 u[0] + 786 u[1] + 736 u[2] + 555 u[3] + 782 u[4]
   + 196 u[5] + 215 u[6] + 752 u[7] + 200 u[8] + 70 u[9] + 246 u[10]
   + 549 u[11] + 945 u[12] + 30 u[13] + 992 u[14] + 232 u[15] + 889 u[16]
   + 123 u[17] + 758 u[18] + 919 u[19] + 80 u[20] + 371 u[21] + 295 u[22]
   + 415 u[23] + 120 u[24] + 959 u[25] + 472 u[26] + 926 u[27] + 353 u[28]
   + 907 u[29] + 409 u[30] + 304 u[31] + 737 u[32] + 738 u[33] + 868 u[34]
   + 478 u[35] + 149 u[36] + 551 u[37] + 818 u[38] + 502 u[39] + 921 u[40]
   + 118 u[41] + 324 u[42] + 955 u[43] + 640 u[44] + 112 u[45] + 723 u[46]
   + 116 u[47] + 561 u[48] + 517 u[49] + 84 u[50] + 11 u[51] + 886 u[52]
   + 628 u[53] + 964 u[54] + 132 u[55] + 226 u[56] + 126 u[57] + 955 u[58]
   + 317 u[59] <= 15145
 primal_lower3: - 14 y[0] - 6 y[1] - 10 y[2] - 13 y[3] - 5 y[4] - 15 y[5]
   - 16 y[7] - 9 y[8] - 13 y[9] - 14 y[10] - 15 y[11] - 8 y[12] - 12 y[13]
   - 12 y[15] - 9 y[16] - y[17] - 10 y[18] - 11 y[19] - y[20] - 16 y[21]
   - 15 y[22] - 13 y[23] - 11 y[24] - 10 y[25] - 4 y[26] - 13 y[27]
   - 12 y[28] - 16 y[29] - 2 y[30] - 3 y[31] - 4 y[32] - 7 y[33] - 16 y[34]
   - 10 y[35] - 15 y[36] - 6 y[37] - 14 y[38] - 6 y[39] - 7 y[40] - 9 y[41]
   - 11 y[42] - 7 y[43] - 12 y[44] - 12 y[45] - 11 y[46] - 11 y[47]
   - 15 y[49] - 14 y[50] - 5 y[51] - 12 y[52] - 12 y[53] - 16 y[54]
   - 6 y[55] - 5 y[56] - 4 y[57] - 9 y[58] - 10 y[59] + 157 u[0] + 463 u[1]
   + 417 u[2] + 776 u[3] + 247 u[4] + 817 u[5] + 40 u[6] + 101 u[7]
   + 393 u[8] + 91 u[9] + 575 u[10] + 866 u[11] + 202 u[12] + 907 u[13]
   + 833 u[14] + 557 u[15] + 626 u[16] + 352 u[17] + 487 u[18] + 932 u[19]
   + 73 u[20] + 456 u[21] + 264 u[22] + 84 u[23] + 985 u[24] + 260 u[25]
   + 641 u[26] + 619 u[27] + 930 u[28] + 32 u[29] + 130 u[30] + 949 u[31]
   + 810 u[32] + 167 u[33] + 765 u[34] + 395 u[35] + 174 u[36] + 644 u[37]
   + 283 u[38] + 195 u[39] + 666 u[40] + 43 u[41] + 357 u[42] + 944 u[43]
   + 945 u[44] + 181 u[45] + 596 u[46] + 505 u[47] + 890 u[48] + 602 u[49]
   + 213 u[50] + 40 u[51] + 223 u[52] + 193 u[53] + 941 u[54] + 585 u[55]
   + 707 u[56] + 715 u[57] + 860 u[58] + 762 u[59] <= 985
 primal_lower4: - 41 y[0] - 49 y[1] - 83 y[2] - 95 y[3] - 110 y[4]
   - 72 y[5] - 54 y[6] - 15 y[7] - 13 y[8] - 128 y[9] - 28 y[10] - 15 y[11]
   - 80 y[12] - 23 y[13] - 37 y[14] - 28 y[15] - 45 y[16] - 89 y[17]
   - 96 y[18] - 111 y[19] - 63 y[20] - 77 y[21] - 15 y[22] - 115 y[23]
   - 16 y[24] - 129 y[25] - 127 y[26] - 43 y[27] - 25 y[28] - 123 y[29]
   - 26 y[30] - 48 y[31] - 111 y[32] - 88 y[33] - 119 y[34] - 36 y[35]
   - 100 y[36] - 78 y[37] - 10 y[38] - 17 y[39] - 31 y[40] - 97 y[41]
   - 108 y[42] - 14 y[43] - 85 y[44] - 16 y[45] - 98 y[46] - 112 y[47]
   - 28 y[48] - 128 y[49] - 117 y[50] - 79 y[51] - 25 y[52] - 53 y[53]
   - 67 y[54] - 99 y[55] - 49 y[56] - 128 y[57] - 34 y[58] - 37 y[59]
   + 846 u[0] + 132 u[1] + 426 u[2] + 597 u[3] + 336 u[4] + 990 u[5]
   + 505 u[6] + 618 u[7] + 762 u[8] + 560 u[9] + 296 u[10] + 335 u[11]
   + 307 u[12] + 960 u[13] + 202 u[14] + 138 u[15] + 147 u[16] + 917 u[17]
   + 600 u[18] + 961 u[19] + 874 u[20] + 869 u[21] + 977 u[22] + 601 u[23]
   + 218 u[24] + 289 u[25] + 114 u[26] + 664 u[27] + 523 u[28] + 61 u[29]
   + 107 u[30] + 946 u[31] + 523 u[32] + 836 u[33] + 654 u[34] + 880 u[35]
   + 191 u[36] + 49 u[37] + 964 u[38] + 520 u[39] + 539 u[40] + 984 u[41]
   + 30 u[42] + 525 u[43] + 90 u[44] + 898 u[45] + 461 u[46] + 750 u[47]
   + 619 u[48] + 335 u[49] + 118 u[50] + 997 u[51] + 136 u[52] + 270 u[53]
   + 878 u[54] + 222 u[55] + 572 u[56] + 144 u[57] + 405 u[58] + 719 u[59]
   <= 7796
 primal_lower5: - 206 y[0] - 166 y[1] - 86 y[2] - 41 y[3] - 12 y[4]
   - 82 y[5] - 202 y[6] - 115 y[7] - 210 y[8] - 202 y[9] - 57 y[10]
   - 180 y[11] - 237 y[12] - 111 y[13] - 86 y[14] - 236 y[15] - 30 y[16]
   - y[17] - 196 y[18] - 111 y[19] - 16 y[20] - 52 y[21] - 77 y[22]
   - 38 y[23] - 214 y[24] - 66 y[25] - 84 y[26] - 146 y[27] - 116 y[28]
   - 240 y[29] - 82 y[30] - 76 y[31] - 238 y[32] - 187 y[33] - 120 y[34]
   - 132 y[35] - 211 y[36] - 213 y[37] - 44 y[38] - 18 y[39] - 214 y[40]
   - 203 y[41] - 58 y[42] - 131 y[43] - 78 y[44] - 152 y[45] - 198 y[46]
   - 114 y[47] - 48 y[48] - 150 y[49] - 2 y[50] - 111 y[51] - 133 y[52]
   - 74 y[53] - 139 y[54] - 220 y[55] - 98 y[56] - 181 y[57] - 208 y[58]
   - 158 y[59] + 95 u[0] + 969 u[1] + 219 u[2] + 114 u[3] + 401 u[4]
   + 75 u[5] + 578 u[6] + 471 u[7] + 867 u[8] + 101 u[9] + 137 u[10]
   + 572 u[11] + 676 u[12] + 469 u[13] + 219 u[14] + 127 u[15] + 484 u[16]
   + 738 u[17] + 481 u[18] + 510 u[19] + 411 u[20] + 162 u[21] + 586 u[22]
   + 38 u[23] + 979 u[24] + 310 u[25] + 691 u[26] + 557 u[27] + 884 u[28]
   + 970 u[29] + 76 u[30] + 391 u[31] + 748 u[32] + 401 u[33] + 735 u[34]
   + 909 u[35] + 888 u[36] + 182 u[37] + 941 u[38] + 477 u[39] + 76 u[40]
   + 253 u[41] + 991 u[42] + 890 u[43] + 75 u[44] + 951 u[45] + 150 u[46]
   + 939 u[47] + 260 u[48] + 124 u[49] + 847 u[50] + 946 u[51] + 177 u[52]
   + 779 u[53] + 895 u[54] + 315 u[55] + 813 u[56] + 237 u[57] + 86 u[58]
   + 604 u[59] <= 15023
 primal_lower6: - 9 y[0] - 3 y[1] - 8 y[2] - 6 y[3] - 15 y[4] - 9 y[5]
   - 8 y[6] - 7 y[7] - 4 y[8] - 15 y[9] - 12 y[10] - 10 y[11] - 15 y[12]
   - 14 y[13] - 10 y[14] - 10 y[15] - 10 y[16] - 9 y[17] - 7 y[18]
   - 10 y[19] - 15 y[21] - 6 y[23] - 13 y[24] - 10 y[25] - 14 y[26]
   - 13 y[27] - 15 y[28] - 6 y[29] - 14 y[30] - 10 y[31] - 12 y[32]
   - 7 y[33] - 8 y[34] - 5 y[35] - 3 y[36] - 10 y[37] - 15 y[38] - 12 y[39]
   - 10 y[41] - 2 y[42] - 12 y[43] - 15 y[44] - 4 y[46] - 4 y[47]
   - 12 y[48] - y[49] - 14 y[50] - y[51] - 12 y[52] - 10 y[53] - 13 y[54]
   - 2 y[56] - 4 y[57] - y[58] - 14 y[59] + 46 u[0] + 796 u[1] + 826 u[2]
   + 21 u[3] + 680 u[4] + 710 u[5] + 209 u[6] + 106 u[7] + 314 u[8]
   + 720 u[9] + 528 u[10] + 295 u[11] + 155 u[12] + 800 u[13] + 874 u[14]
   + 962 u[15] + 899 u[16] + 741 u[17] + 672 u[18] + 969 u[19] + 130 u[20]
   + 285 u[21] + 857 u[22] + 225 u[23] + 178 u[24] + 785 u[25] + 66 u[26]
   + 48 u[27] + 675 u[28] + 581 u[29] + 371 u[30] + 706 u[31] + 587 u[32]
   + 716 u[33] + 942 u[34] + 648 u[35] + 215 u[36] + 337 u[37] + 948 u[38]
   + 128 u[39] + 211 u[40] + 680 u[41] + 662 u[42] + 29 u[43] + 418 u[44]
   + 922 u[45] + 837 u[46] + 334 u[47] + 195 u[48] + 311 u[49] + 686 u[50]
   + 645 u[51] + 408 u[52] + 510 u[53] + 534 u[54] + 686 u[55] + 300 u[56]
   + 496 u[57] + 309 u[58] + 727 u[59] <= 969
 primal_lower7: - 137 y[0] - 145 y[1] - 139 y[2] - 92 y[3] - 136 y[4]
   - 53 y[5] - 158 y[6] - 16 y[7] - 15 y[8] - 76 y[9] - 124 y[10]
   - 180 y[11] - 168 y[12] - 139 y[13] - 224 y[14] - 28 y[15] - 12 y[16]
   - 172 y[17] - 35 y[18] - 141 y[19] - 45 y[20] - 53 y[21] - 28 y[22]
   - 182 y[23] - 92 y[24] - 20 y[25] - 91 y[26] - 86 y[27] - 178 y[28]
   - 101 y[29] - 25 y[30] - 51 y[31] - 169 y[32] - 185 y[33] - 23 y[34]
   - 84 y[35] - 40 y[36] - 212 y[37] - 153 y[38] - 43 y[39] - 65 y[40]
   - 211 y[41] - 99 y[42] - 119 y[43] - 222 y[44] - 155 y[45] - 30 y[46]
   - 198 y[47] - 198 y[48] - 150 y[49] - 211 y[50] - 28 y[51] - 211 y[52]
   - 191 y[53] - 57 y[54] - 46 y[55] - 170 y[56] - 112 y[57] - 55 y[58]
   - 79 y[59] + 901 u[0] + 374 u[1] + 286 u[2] + 506 u[3] + 792 u[4]
   + 368 u[5] + 981 u[6] + 184 u[7] + 274 u[8] + 809 u[9] + 931 u[10]
   + 837 u[11] + 731 u[12] + 121 u[13] + 453 u[14] + 159 u[15] + 515 u[16]
   + 878 u[17] + 44 u[18] + 870 u[19] + 385 u[20] + 159 u[21] + 293 u[22]
   + 223 u[23] + 810 u[24] + 819 u[25] + 350 u[26] + 30 u[27] + 146 u[28]
   + 783 u[29] + 926 u[30] + 952 u[31] + 43 u[32] + 814 u[33] + 434 u[34]
   + 846 u[35] + 295 u[36] + 962 u[37] + 88 u[38] + 141 u[39] + 707 u[40]
   + 9 u[41] + 193 u[42] + 75 u[43] + 778 u[44] + 892 u[45] + 136 u[46]
   + 212 u[47] + 514 u[48] + 977 u[49] + 2 u[50] + 10 u[51] + 992 u[52]
   + 600 u[53] + 193 u[54] + 203 u[55] + 875 u[56] + 10 u[57] + 73 u[58]
   + 428 u[59] <= 14196
 primal_lower8: - 9 y[0] - 35 y[1] - 103 y[2] - 48 y[3] - y[4] - 30 y[5]
   - 109 y[6] - 27 y[7] - y[8] - 102 y[9] - 108 y[11] - 58 y[12] - 10 y[13]
   - 109 y[14] - 86 y[15] - 118 y[16] - 15 y[17] - 75 y[18] - 81 y[19]
   - 120 y[20] - 2 y[21] - 49 y[22] - 82 y[23] - 45 y[24] - 117 y[25]
   - 20 y[26] - 121 y[27] - 108 y[28] - 80 y[29] - 46 y[30] - y[31]
   - 105 y[32] - 72 y[33] - 118 y[34] - 65 y[35] - 38 y[36] - 7 y[37]
   - 39 y[38] - 81 y[39] - 18 y[40] - 75 y[41] - 94 y[42] - 65 y[43]
   - 91 y[44] - 50 y[45] - 109 y[46] - 47 y[47] - 80 y[48] - 106 y[49]
   - 93 y[50] - 67 y[51] - 34 y[52] - 116 y[53] - 66 y[54] - 42 y[55]
   - 100 y[56] - 25 y[57] - 22 y[58] - 28 y[59] + 84 u[0] + 418 u[1]
   + 40 u[2] + 571 u[3] + 494 u[4] + 692 u[5] + 527 u[6] + 888 u[7]
   + 40 u[8] + 830 u[9] + 342 u[10] + 781 u[11] + 153 u[12] + 422 u[13]
   + 232 u[14] + 984 u[15] + 937 u[16] + 83 u[17] + 102 u[18] + 463 u[19]
   + 624 u[20] + 571 u[21] + 735 u[22] + 799 u[23] + 216 u[24] + 311 u[25]
   + 1000 u[26] + 966 u[27] + 345 u[28] + 419 u[29] + 425 u[30] + 512 u[31]
   + 705 u[32] + 146 u[33] + 60 u[34] + 206 u[35] + 389 u[36] + 671 u[37]
   + 34 u[38] + 918 u[39] + 817 u[40] + 174 u[41] + 292 u[42] + 539 u[43]
   + 552 u[44] + 368 u[45] + 475 u[46] + 36 u[47] + 297 u[48] + 421 u[49]
   + 364 u[50] + 979 u[51] + 886 u[52] + 596 u[53] + 68 u[54] + 244 u[55]
   + 362 u[56] + 926 u[57] + 731 u[58] + 845 u[59] <= 7276
 primal_lower9: - 8 y[0] - 7 y[1] - 12 y[2] - 15 y[3] - 7 y[4] - y[5]
   - 12 y[6] - 5 y[7] - 10 y[8] - 5 y[9] - 13 y[11] - 4 y[12] - 6 y[13]
   - 6 y[14] - 14 y[15] - 12 y[16] - 2 y[17] - 8 y[18] - 5 y[19] - 15 y[20]
   - 15 y[21] - 2 y[22] - 15 y[25] - 11 y[26] - 11 y[27] - 15 y[29]
   - 11 y[30] - 5 y[31] - 7 y[32] - 13 y[33] - 15 y[34] - 11 y[35]
   - 15 y[36] - 6 y[38] - 15 y[39] - 2 y[40] - 2 y[41] - 14 y[42]
   - 13 y[43] - 15 y[44] - 4 y[45] - 16 y[46] - 6 y[47] - 14 y[48]
   - 4 y[49] - 14 y[50] - 16 y[51] - 4 y[52] - 14 y[53] - 9 y[54]
   - 11 y[55] - 5 y[56] - 14 y[57] - 3 y[58] - 8 y[59] + 822 u[0]
   + 868 u[1] + 730 u[2] + 485 u[3] + 896 u[4] + 86 u[5] + 753 u[6]
   + 282 u[7] + 666 u[8] + 872 u[9] + 200 u[10] + 271 u[11] + 883 u[12]
   + 680 u[13] + 474 u[14] + 210 u[15] + 939 u[16] + 421 u[17] + 824 u[18]
   + 721 u[19] + 346 u[20] + 973 u[21] + 417 u[22] + 225 u[23] + 410 u[24]
   + 241 u[25] + 442 u[26] + 280 u[27] + 443 u[28] + 613 u[29] + 619 u[30]
   + 250 u[31] + 707 u[32] + 276 u[33] + 38 u[34] + 728 u[35] + 951 u[36]
   + 393 u[37] + 692 u[38] + 144 u[39] + 67 u[40] + 816 u[41] + 646 u[42]
   + 277 u[43] + 434 u[44] + 282 u[45] + 253 u[46] + 494 u[47] + 619 u[48]
   + 263 u[49] + 694 u[50] + 685 u[51] + 624 u[52] + 694 u[53] + 990 u[54]
   + 414 u[55] + 348 u[56] + 288 u[57] + 325 u[58] + 639 u[59] <= 990
 mccormick1[0]: - u[0] + z[0] <= 0
 mccormick1[1]: - u[1] + z[1] <= 0
 mccormick1[2]: - u[2] + z[2] <= 0
 mccormick1[3]: - u[3] + z[3] <= 0
 mccormick1[4]: - u[4] + z[4] <= 0
 mccormick1[5]: - u[5] + z[5] <= 0
 mccormick1[6]: - u[6] + z[6] <= 0
 mccormick1[7]: - u[7] + z[7] <= 0
 mccormick1[8]: - u[8] + z[8] <= 0
 mccormick1[9]: - u[9] + z[9] <= 0
 mccormick1[10]: - u[10] + z[10] <= 0
 mccormick1[11]: - u[11] + z[11] <= 0
 mccormick1[12]: - u[12] + z[12] <= 0
 mccormick1[13]: - u[13] + z[13] <= 0
 mccormick1[14]: - u[14] + z[14] <= 0
 mccormick1[15]: - u[15] + z[15] <= 0
 mccormick1[16]: - u[16] + z[16] <= 0
 mccormick1[17]: - u[17] + z[17] <= 0
 mccormick1[18]: - u[18] + z[18] <= 0
 mccormick1[19]: - u[19] + z[19] <= 0
 mccormick1[20]: - u[20] + z[20] <= 0
 mccormick1[21]: - u[21] + z[21] <= 0
 mccormick1[22]: - u[22] + z[22] <= 0
 mccormick1[23]: - u[23] + z[23] <= 0
 mccormick1[24]: - u[24] + z[24] <= 0
 mccormick1[25]: - u[25] + z[25] <= 0
 mccormick1[26]: - u[26] + z[26] <= 0
 mccormick1[27]: - u[27] + z[27] <= 0
 mccormick1[28]: - u[28] + z[28] <= 0
 mccormick1[29]: - u[29] + z[29] <= 0
 mccormick1[30]: - u[30] + z[30] <= 0
 mccormick1[31]: - u[31] + z[31] <= 0
 mccormick1[32]: - u[32] + z[32] <= 0
 mccormick1[33]: - u[33] + z[33] <= 0
 mccormick1[34]: - u[34] + z[34] <= 0
 mccormick1[35]: - u[35] + z[35] <= 0
 mccormick1[36]: - u[36] + z[36] <= 0
 mccormick1[37]: - u[37] + z[37] <= 0
 mccormick1[38]: - u[38] + z[38] <= 0
 mccormick1[39]: - u[39] + z[39] <= 0
 mccormick1[40]: - u[40] + z[40] <= 0
 mccormick1[41]: - u[41] + z[41] <= 0
 mccormick1[42]: - u[42] + z[42] <= 0
 mccormick1[43]: - u[43] + z[43] <= 0
 mccormick1[44]: - u[44] + z[44] <= 0
 mccormick1[45]: - u[45] + z[45] <= 0
 mccormick1[46]: - u[46] + z[46] <= 0
 mccormick1[47]: - u[47] + z[47] <= 0
 mccormick1[48]: - u[48] + z[48] <= 0
 mccormick1[49]: - u[49] + z[49] <= 0
 mccormick1[50]: - u[50] + z[50] <= 0
 mccormick1[51]: - u[51] + z[51] <= 0
 mccormick1[52]: - u[52] + z[52] <= 0
 mccormick1[53]: - u[53] + z[53] <= 0
 mccormick1[54]: - u[54] + z[54] <= 0
 mccormick1[55]: - u[55] + z[55] <= 0
 mccormick1[56]: - u[56] + z[56] <= 0
 mccormick1[57]: - u[57] + z[57] <= 0
 mccormick1[58]: - u[58] + z[58] <= 0
 mccormick1[59]: - u[59] + z[59] <= 0
 mccormick2[0]: - y[0] + z[0] <= 0
 mccormick2[1]: - y[1] + z[1] <= 0
 mccormick2[2]: - y[2] + z[2] <= 0
 mccormick2[3]: - y[3] + z[3] <= 0
 mccormick2[4]: - y[4] + z[4] <= 0
 mccormick2[5]: - y[5] + z[5] <= 0
 mccormick2[6]: - y[6] + z[6] <= 0
 mccormick2[7]: - y[7] + z[7] <= 0
 mccormick2[8]: - y[8] + z[8] <= 0
 mccormick2[9]: - y[9] + z[9] <= 0
 mccormick2[10]: - y[10] + z[10] <= 0
 mccormick2[11]: - y[11] + z[11] <= 0
 mccormick2[12]: - y[12] + z[12] <= 0
 mccormick2[13]: - y[13] + z[13] <= 0
 mccormick2[14]: - y[14] + z[14] <= 0
 mccormick2[15]: - y[15] + z[15] <= 0
 mccormick2[16]: - y[16] + z[16] <= 0
 mccormick2[17]: - y[17] + z[17] <= 0
 mccormick2[18]: - y[18] + z[18] <= 0
 mccormick2[19]: - y[19] + z[19] <= 0
 mccormick2[20]: - y[20] + z[20] <= 0
 mccormick2[21]: - y[21] + z[21] <= 0
 mccormick2[22]: - y[22] + z[22] <= 0
 mccormick2[23]: - y[23] + z[23] <= 0
 mccormick2[24]: - y[24] + z[24] <= 0
 mccormick2[25]: - y[25] + z[25] <= 0
 mccormick2[26]: - y[26] + z[26] <= 0
 mccormick2[27]: - y[27] + z[27] <= 0
 mccormick2[28]: - y[28] + z[28] <= 0
 mccormick2[29]: - y[29] + z[29] <= 0
 mccormick2[30]: - y[30] + z[30] <= 0
 mccormick2[31]: - y[31] + z[31] <= 0
 mccormick2[32]: - y[32] + z[32] <= 0
 mccormick2[33]: - y[33] + z[33] <= 0
 mccormick2[34]: - y[34] + z[34] <= 0
 mccormick2[35]: - y[35] + z[35] <= 0
 mccormick2[36]: - y[36] + z[36] <= 0
 mccormick2[37]: - y[37] + z[37] <= 0
 mccormick2[38]: - y[38] + z[38] <= 0
 mccormick2[39]: - y[39] + z[39] <= 0
 mccormick2[40]: - y[40] + z[40] <= 0
 mccormick2[41]: - y[41] + z[41] <= 0
 mccormick2[42]: - y[42] + z[42] <= 0
 mccormick2[43]: - y[43] + z[43] <= 0
 mccormick2[44]: - y[44] + z[44] <= 0
 mccormick2[45]: - y[45] + z[45] <= 0
 mccormick2[46]: - y[46] + z[46] <= 0
 mccormick2[47]: - y[47] + z[47] <= 0
 mccormick2[48]: - y[48] + z[48] <= 0
 mccormick2[49]: - y[49] + z[49] <= 0
 mccormick2[50]: - y[50] + z[50] <= 0
 mccormick2[51]: - y[51] + z[51] <= 0
 mccormick2[52]: - y[52] + z[52] <= 0
 mccormick2[53]: - y[53] + z[53] <= 0
 mccormick2[54]: - y[54] + z[54] <= 0
 mccormick2[55]: - y[55] + z[55] <= 0
 mccormick2[56]: - y[56] + z[56] <= 0
 mccormick2[57]: - y[57] + z[57] <= 0
 mccormick2[58]: - y[58] + z[58] <= 0
 mccormick2[59]: - y[59] + z[59] <= 0
 mccormick3[0]: y[0] + u[0] - z[0] <= 1
 mccormick3[1]: y[1] + u[1] - z[1] <= 1
 mccormick3[2]: y[2] + u[2] - z[2] <= 1
 mccormick3[3]: y[3] + u[3] - z[3] <= 1
 mccormick3[4]: y[4] + u[4] - z[4] <= 1
 mccormick3[5]: y[5] + u[5] - z[5] <= 1
 mccormick3[6]: y[6] + u[6] - z[6] <= 1
 mccormick3[7]: y[7] + u[7] - z[7] <= 1
 mccormick3[8]: y[8] + u[8] - z[8] <= 1
 mccormick3[9]: y[9] + u[9] - z[9] <= 1
 mccormick3[10]: y[10] + u[10] - z[10] <= 1
 mccormick3[11]: y[11] + u[11] - z[11] <= 1
 mccormick3[12]: y[12] + u[12] - z[12] <= 1
 mccormick3[13]: y[13] + u[13] - z[13] <= 1
 mccormick3[14]: y[14] + u[14] - z[14] <= 1
 mccormick3[15]: y[15] + u[15] - z[15] <= 1
 mccormick3[16]: y[16] + u[16] - z[16] <= 1
 mccormick3[17]: y[17] + u[17] - z[17] <= 1
 mccormick3[18]: y[18] + u[18] - z[18] <= 1
 mccormick3[19]: y[19] + u[19] - z[19] <= 1
 mccormick3[20]: y[20] + u[20] - z[20] <= 1
 mccormick3[21]: y[21] + u[21] - z[21] <= 1
 mccormick3[22]: y[22] + u[22] - z[22] <= 1
 mccormick3[23]: y[23] + u[23] - z[23] <= 1
 mccormick3[24]: y[24] + u[24] - z[24] <= 1
 mccormick3[25]: y[25] + u[25] - z[25] <= 1
 mccormick3[26]: y[26] + u[26] - z[26] <= 1
 mccormick3[27]: y[27] + u[27] - z[27] <= 1
 mccormick3[28]: y[28] + u[28] - z[28] <= 1
 mccormick3[29]: y[29] + u[29] - z[29] <= 1
 mccormick3[30]: y[30] + u[30] - z[30] <= 1
 mccormick3[31]: y[31] + u[31] - z[31] <= 1
 mccormick3[32]: y[32] + u[32] - z[32] <= 1
 mccormick3[33]: y[33] + u[33] - z[33] <= 1
 mccormick3[34]: y[34] + u[34] - z[34] <= 1
 mccormick3[35]: y[35] + u[35] - z[35] <= 1
 mccormick3[36]: y[36] + u[36] - z[36] <= 1
 mccormick3[37]: y[37] + u[37] - z[37] <= 1
 mccormick3[38]: y[38] + u[38] - z[38] <= 1
 mccormick3[39]: y[39] + u[39] - z[39] <= 1
 mccormick3[40]: y[40] + u[40] - z[40] <= 1
 mccormick3[41]: y[41] + u[41] - z[41] <= 1
 mccormick3[42]: y[42] + u[42] - z[42] <= 1
 mccormick3[43]: y[43] + u[43] - z[43] <= 1
 mccormick3[44]: y[44] + u[44] - z[44] <= 1
 mccormick3[45]: y[45] + u[45] - z[45] <= 1
 mccormick3[46]: y[46] + u[46] - z[46] <= 1
 mccormick3[47]: y[47] + u[47] - z[47] <= 1
 mccormick3[48]: y[48] + u[48] - z[48] <= 1
 mccormick3[49]: y[49] + u[49] - z[49] <= 1
 mccormick3[50]: y[50] + u[50] - z[50] <= 1
 mccormick3[51]: y[51] + u[51] - z[51] <= 1
 mccormick3[52]: y[52] + u[52] - z[52] <= 1
 mccormick3[53]: y[53] + u[53] - z[53] <= 1
 mccormick3[54]: y[54] + u[54] - z[54] <= 1
 mccormick3[55]: y[55] + u[55] - z[55] <= 1
 mccormick3[56]: y[56] + u[56] - z[56] <= 1
 mccormick3[57]: y[57] + u[57] - z[57] <= 1
 mccormick3[58]: y[58] + u[58] - z[58] <= 1
 mccormick3[59]: y[59] + u[59] - z[59] <= 1
Bounds
Binaries
 y[0] y[1] y[2] y[3] y[4] y[5] y[6] y[7] y[8] y[9] y[10] y[11] y[12] y[13]
 y[14] y[15] y[16] y[17] y[18] y[19] y[20] y[21] y[22] y[23] y[24] y[25]
 y[26] y[27] y[28] y[29] y[30] y[31] y[32] y[33] y[34] y[35] y[36] y[37]
 y[38] y[39] y[40] y[41] y[42] y[43] y[44] y[45] y[46] y[47] y[48] y[49]
 y[50] y[51] y[52] y[53] y[54] y[55] y[56] y[57] y[58] y[59] u[0] u[1] u[2]
 u[3] u[4] u[5] u[6] u[7] u[8] u[9] u[10] u[11] u[12] u[13] u[14] u[15]
 u[16] u[17] u[18] u[19] u[20] u[21] u[22] u[23] u[24] u[25] u[26] u[27]
 u[28] u[29] u[30] u[31] u[32] u[33] u[34] u[35] u[36] u[37] u[38] u[39]
 u[40] u[41] u[42] u[43] u[44] u[45] u[46] u[47] u[48] u[49] u[50] u[51]
 u[52] u[53] u[54] u[55] u[56] u[57] u[58] u[59] z[0] z[1] z[2] z[3] z[4]
 z[5] z[6] z[7] z[8] z[9] z[10] z[11] z[12] z[13] z[14] z[15] z[16] z[17]
 z[18] z[19] z[20] z[21] z[22] z[23] z[24] z[25] z[26] z[27] z[28] z[29]
 z[30] z[31] z[32] z[33] z[34] z[35] z[36] z[37] z[38] z[39] z[40] z[41]
 z[42] z[43] z[44] z[45] z[46] z[47] z[48] z[49] z[50] z[51] z[52] z[53]
 z[54] z[55] z[56] z[57] z[58] z[59]
End
